SCIP version 5.0.0 [precision: 8 byte] [memory: block] [mode: optimized] [LP solver: NONE] [GitHash: 3bbd232]
Copyright (C) 2002-2017 Konrad-Zuse-Zentrum fuer Informationstechnik Berlin (ZIB)

External codes: 
  Readline EditLine w  GNU library for command line editing (gnu.org/s/readline)
  CppAD 20160000.1     Algorithmic Differentiation of C++ algorithms developed by B. Bell (www.coin-or.org/CppAD)
  ZLIB 1.2.5           General purpose compression library by J. Gailly and M. Adler (zlib.net)
  GMP 6.1.2            GNU Multiple Precision Arithmetic Library developed by T. Granlund (gmplib.org)

user parameter file <scip.set> not found - using default parameters

read problem <../../Split_data/output/statG/7/0_sample_statG.logreg>
============

File name	:	../../Split_data/output/statG/7/0_sample_statG.logreg
Problem name 	:	0_sample_statG
Number of data	:	800
Number of var	:	61
The given data has linear dependence
13 sets of column vector are linearly dependent:

[dim=1] time: 0.039013
[dim=2] time: 0.080407
[dim=3] time: 0.119255
[dim=4] time: 0.160636
[dim=5] time: 0.199666
[dim=6] time: 0.246402
[dim=7] time: 0.289162
[dim=8] time: 0.339767
[dim=9] time: 0.382381
[dim=10] time: 0.432702
[dim=11] time: 0.47445
[dim=12] time: 0.515775
[dim=13] time: 0.556493
[dim=14] time: 0.595327
[dim=15] time: 0.635454
[dim=16] time: 0.67756
[dim=17] time: 0.71692
[dim=18] time: 0.765878
[dim=19] time: 0.806278
[dim=20] time: 0.848081
[dim=21] time: 0.886871
[dim=22] time: 0.92393
[dim=23] time: 0.962036
[dim=24] time: 1.00263
[dim=25] Time of forward = 1.03251sec.
AIC: 798.663
k: 24

[dim=48] time: 0.122295
[dim=47] time: 0.204284
[dim=46] time: 0.273129
[dim=45] time: 0.346897
[dim=44] time: 0.413546
[dim=43] time: 0.490399
[dim=42] time: 0.541752
[dim=41] time: 0.597137
[dim=40] time: 0.653705
[dim=39] time: 0.713859
[dim=38] time: 0.763747
[dim=37] time: 0.810535
[dim=36] time: 0.862545
[dim=35] time: 0.910843
[dim=34] time: 0.952279
[dim=33] time: 0.995759
[dim=32] time: 1.03789
[dim=31] time: 1.07627
[dim=30] time: 1.12865
[dim=29] time: 1.16437
[dim=28] time: 1.2063
[dim=27] time: 1.24787
[dim=26] time: 1.28911
[dim=25] time: 1.32361
[dim=24] Time of backward = 1.35255sec.
AIC: 802.635
k: 25
